  Geometry = GenFormat {
<<< "geom.gen"
}

Driver = {}


Hamiltonian = DFTB {
  SCC = Yes
  SCCTolerance = 1.0e-5
  MaxSccIterations = 250

  ThirdOrderFull = Yes
  Dispersion = DftD3 {}
  DampXH = Yes
  DampXHExponent = 4.0
  __GUESS__

  HubbardDerivs {
  C  = -0.1492
  O  = -0.1575
  H  = -0.1857
  Zr = -0.05538
  }

  # Sampling of the Briullouin zone according to 
  # the Monkhorst-Pack scheme
  KPointsAndWeights = {
    0.0 0.0 0.0 1.0
  }

  SlaterKosterFiles = Type2FileNames {
    Prefix = "/scratch_rune03a/ape/sk_files/ultimate-3ob_Zr/"
    Separator = "-"
    Suffix = ".skf"
    LowerCaseTypeName = No
  }


  MaxAngularMomentum {
    C  = "p"
    O  = "p"
    H  = "s"
    Zr = "d"
  }

  Filling = Fermi {
    Temperature [Kelvin] = 0.0
  }
}

Options {}

Analysis = {
   MullikenAnalysis = Yes
   CalculateForces = Yes
}


ParserOptions {
  ParserVersion = 5
}
