Geometry = GenFormat {
616  S
C  H  O  Zn
1     4   5.862490607929   6.265681848839   8.415780785524
2     3   7.193731064909   7.184387666949   7.310273084621
3     4   8.538283589823   6.006147877541   6.515985527575
4     4   6.262385416013   8.303558000460   5.872829834630
5     4   8.176129688369   8.622083879662   8.469106967629
6     4  -6.016638928563  -6.277524693921   8.384202327321
7     3  -7.360293630143  -7.310927392979   7.426342231327
8     4  -8.469827615930  -5.986119586908   6.349072296556
9     4  -6.313470918809  -8.324949144177   5.897454010199
10     4  -8.447446793983  -8.321144051868   8.643743863467
11     4  -5.970378950297   6.574709685839  -8.616524216812
12     3  -7.412087472688   7.653820375365  -7.495867145655
13     4  -8.654488754512   6.216771549334  -6.599448721436
14     4  -6.457791072585   8.487786366140  -6.028210101467
15     4  -8.614404935878   8.783910590661  -8.625351327577
16     4   6.049548247873  -6.503590354167  -8.184633235566
17     3   7.453757311394  -7.582474198951  -7.123048859643
18     4   8.715024834094  -6.366802927544  -6.175560889611
19     4   6.684587245083  -8.851618479305  -5.859898767202
20     4   8.546981986645  -8.587189999331  -8.567054925801
21     4   8.862601755495  -9.139289839793   6.738961486186
22     3   7.903546990480  -7.894119492876   7.899329150075
23     4   6.800691953911  -8.953519702916   9.281380774147
24     4   9.202101744788  -6.880016289821   9.095942483633
25     4   6.772080960149  -6.768720565096   6.780254386381
26     4  -9.217212149614   9.016409393333   6.509265350615
27     3  -8.025407101341   7.687313729869   7.680274681698
28     4  -6.835437887461   8.979855713649   8.734387745296
29     4  -9.142886809426   6.738688380424   8.946415951189
30     4  -6.918653993023   6.601179989486   6.461832518339
31     4  -8.714422008490  -8.744933422826  -6.814051281690
32     3  -7.688478897693  -7.494799607779  -7.877461304676
33     4  -6.656286916692  -8.756890887238  -9.226475789821
34     4  -9.109089087573  -6.343934942384  -8.872445732944
35     4  -6.368101881954  -6.462980114581  -6.778781899156
36     4   8.819945380988   8.680783528636  -6.649839596790
37     3   7.710581790161   7.604517802622  -7.928585357255
38     4   6.697416084217   8.901322178363  -9.109199704386
39     4   9.008392539983   6.560866532827  -9.060740478725
40     4   6.699783059256   6.486152611562  -6.762584738311
41     3 -10.415241479109   7.142452475998  -6.352517779015
42     1 -11.035532837105   7.734169950081  -7.301830567359
43     3 -10.450520051045   8.280331616990  -8.305117233905
44     1 -12.538395719521   7.724729992483  -7.340316829795
45     1 -13.172418894724   8.086251242561  -8.535065332907
46     2 -12.523155796606   8.246042822292  -9.392835582989
47     1 -14.566248466349   8.024004852073  -8.690638605592
48     2 -15.011685837250   8.385938492224  -9.616560524181
49     1 -15.360548959409   7.676608704244  -7.544323677816
50     1 -14.684413931706   7.293557370631  -6.359463310921
51     2 -15.162113079146   6.933912691863  -5.447444763666
52     1 -13.290930917475   7.317404344199  -6.250075131717
53     2 -12.732417800009   6.917060514948  -5.408243350860
54     1  15.644649360058   7.663013291089  -7.540013570398
55     1  14.921202783307   7.765875324668  -6.370301658978
56     2  15.407093934863   7.895676923509  -5.410732240904
57     1  13.505510265264   7.797001121828  -6.403344779341
58     2  12.879684735997   8.101359005086  -5.564739780191
59     1  12.880088959637   7.520963650053  -7.673167688422
60     1  11.398625871008   7.606838723135  -7.762305133023
61     3  10.901492824735   7.005531210015  -8.784918322909
62     3  10.733016817145   8.274400144311  -6.921019018332
63     1  13.651572118309   7.295361375027  -8.848141235944
64     2  13.157987289804   7.016376115107  -9.769100686488
65     1  14.978376068909   7.472285152325  -8.771674775502
66     2  15.554365481945   7.504081540580  -9.691316324911
67     3  10.513178841013  -7.041024282875  -6.181874573339
68     1  11.131033868787  -7.771964797010  -7.081802950704
69     3  10.524533548014  -8.250329046272  -8.067615367840
70     1  12.584357148049  -8.065901269209  -6.833900826458
71     1  13.120862590263  -9.128042762427  -7.613138028986
72     2  12.379089404907  -9.720655296804  -8.157219634470
73     1  14.577537087814  -9.173956558276  -7.664162379981
74     2  15.239565795404  -9.855402690914  -8.209705494841
75     1  15.392462692547  -8.212442882467  -7.061244546231
76     1  14.776021269352  -7.228054332475  -6.198389536314
77     2  15.278974769170  -6.541323929958  -5.520237999265
78     1  13.390681839604  -7.195331710465  -6.121313807312
79     2  12.897342933783  -6.462418800924  -5.489831318135
80     1 -15.644122180776  -8.132156481475  -7.309968102967
81     1 -14.816903994638  -9.229346654260  -7.077617439665
82     2 -15.354514552071 -10.101559951510  -6.711381208068
83     1 -13.453005328883  -9.148599522661  -7.099615313703
84     2 -12.873757857028 -10.027333884943  -6.849659915492
85     1 -12.895816267301  -8.003931746445  -7.623621159726
86     1 -11.409185242090  -7.973163153913  -7.867314245249
87     3 -10.914579475358  -7.101009375079  -8.681703944510
88     3 -10.696576189907  -8.798139382593  -7.273249470226
89     1 -13.653640873058  -6.839041744063  -7.794749997497
90     2 -13.268577855760  -5.919139035562  -8.217556361549
91     1 -15.052523023576  -6.884828311089  -7.624617203833
92     2 -15.631712630721  -5.972476050108  -7.768418503535
93     3   6.218541732756   6.857366009386  10.259588302140
94     1   7.149103579053   7.397814141763  10.914608778244
95     3   8.106506027578   8.113902939823  10.358575643643
96     1   7.230976399666   7.285718683736  12.395406542891
97     1   8.451119945742   7.445582641098  13.111144157687
98     2   9.366437452859   7.544407050046  12.539778946457
99     1   8.534027626798   7.177111845213  14.474850394757
100     2   9.479620198470   7.190629388960  15.007252741795
101     1   7.306467002836   6.886744373604  15.150918046178
102     1   6.060216759455   6.854620817207  14.445624151804
103     2   5.189240201660   6.723951750628  15.081358388683
104     1   6.062807484241   6.898464196338  13.063645725441
105     2   5.173346049730   6.680421910739  12.472490445933
106     1   7.231778093827   6.920110231443 -15.926579164173
107     1   8.262160387902   6.362262795531 -15.170230375192
108     2   9.076528415829   5.860284447318 -15.692406353633
109     1   8.348255741567   6.499764867728 -13.767861766202
110     2   9.259710450187   6.114514343123 -13.315688530117
111     1   7.403027110586   7.250877342758 -13.031793254242
112     1   7.631996709688   7.500196862610 -11.517460920019
113     3   6.893548822631   8.290830939093 -10.895179750053
114     3   8.562336558776   6.806309689636 -10.938750139903
115     1   6.261329442839   7.738065184697 -13.779388258261
116     2   5.495679416491   8.292686799195 -13.225009010973
117     1   6.210948558881   7.574494675901 -15.200256507476
118     2   5.429252737310   7.953384521761 -15.861874764538
119     3  -6.577955907454   6.811950279163 -10.492177961283
120     1  -7.448148570559   7.546168959661 -11.133342516275
121     3  -8.182566951386   8.351084123281 -10.524550883664
122     1  -7.410281302461   7.603924626760 -12.592510395051
123     1  -8.159749419838   8.590804871672 -13.252988488822
124     2  -8.640645665443   9.349239989721 -12.628674973525
125     1  -8.211350609081   8.613218119107 -14.661031692821
126     2  -8.717457329469   9.349327444168 -15.281227624228
127     1  -7.501624164528   7.682764573011 -15.371892504259
128     1  -6.791081728640   6.703560347717 -14.785595234662
129     2  -6.244852494346   5.981439573780 -15.376640363732
130     1  -6.717666703627   6.644338345044 -13.353179004965
131     2  -6.033697251447   5.941183154930 -12.862991561368
132     1  -7.654819913319   7.688298469992  15.649172330468
133     1  -8.163134869813   6.623760535904  14.968554257214
134     2  -8.644484517233   5.805403763950  15.486326802072
135     1  -8.352157302697   6.782832631148  13.620810092325
136     2  -8.614629852974   5.911868915997  13.044540812869
137     1  -7.902738080029   7.837194855928  12.933223747658
138     1  -7.952211351490   7.793596373347  11.381680077275
139     3  -7.025088554637   8.313437284365  10.632129890161
140     3  -8.975263599226   7.233911160640  10.924986517416
141     1  -7.297547839990   8.902368242013  13.553990821514
142     2  -7.106770593489   9.769470274656  12.923791054554
143     1  -7.200699756202   8.873976227726  14.944670346938
144     2  -6.758301796170   9.672165802434  15.558013723946
145     3  10.397035010750   6.630672803604   6.539730701789
146     1  10.859037000471   7.680099069111   7.091047343046
147     3  10.126532085676   8.544137640904   7.689525909721
148     1  12.317032783782   7.830160674061   7.175836580110
149     1  12.933106904034   8.863061192399   7.961152271113
150     2  12.320553923720   9.660043840120   8.377283596911
151     1  14.328953992913   8.900723424988   8.010249332145
152     2  14.778682692262   9.769866588540   8.485138441732
153     1  15.127048953613   7.909602748816   7.315459733626
154     1  14.510344220070   7.010687387482   6.537444909556
155     2  15.110643852149   6.330749258860   5.945962542282
156     1  13.131410407475   6.865503348783   6.536030907831
157     2  12.586161830453   6.159242024214   5.913202700529
158     1 -15.857079478163   8.019291021760   7.394188522876
159     1 -15.139063123867   9.203478112553   7.198287421555
160     2 -15.650917149053  10.139299566447   6.990033915614
161     1 -13.752923718497   9.268322250062   7.402751982714
162     2 -13.170649421362  10.182414838948   7.386971841599
163     1 -13.084162038058   8.095016690212   7.619473775765
164     1 -11.575998438558   8.096838212777   7.658184327118
165     3 -11.036124128176   7.104424856155   8.230014789906
166     3 -10.970611023343   9.083767709930   7.102825249874
167     1 -13.742461680529   6.872338279070   7.784860131412
168     2 -13.203024867384   5.951062080880   8.017608506917
169     1 -15.134312587504   6.826421793767   7.747420982108
170     2 -15.780334965571   5.964256851934   7.919424537236
171     3 -10.221406549545  -6.880674383831   6.323500279732
172     1 -10.842641245502  -7.788480160566   7.005960187153
173     3 -10.312352266442  -8.611180838135   7.871550647105
174     1 -12.370545923108  -7.818191011079   6.977514309620
175     1 -13.009567722831  -9.081936619615   7.267272053784
176     2 -12.496179118890 -10.026623999830   7.431237837682
177     1 -14.423103603345  -9.075169770972   7.128068556223
178     2 -14.969158324486 -10.000555704493   7.297155110004
179     1 -15.201284651195  -7.915583809346   7.056105058070
180     1 -14.568896328473  -6.690162953823   6.901907443495
181     2 -15.147306276941  -5.793736117667   6.674558086733
182     1 -13.137807393226  -6.673847798977   6.842271430959
183     2 -12.634737592749  -5.726844406950   6.626211205978
184     1  15.831226073445  -8.024940602402   7.160968091482
185     1  14.925460345347  -8.873089468607   6.511307160267
186     2  15.429375836591  -9.718731358332   6.040354253697
187     1  13.547128631029  -8.649471385188   6.551367582535
188     2  12.856269333314  -9.170467750233   5.889833266713
189     1  13.014271160134  -7.665761563536   7.408341380492
190     1  11.537083785083  -7.743135919638   7.574774421921
191     3  11.069357918475  -7.003341686508   8.558782339571
192     3  10.837036513690  -8.464249964506   6.811674350288
193     1  13.865559111684  -6.885973882119   8.216566973481
194     2  13.385802073312  -6.105906828615   8.809566288603
195     1  15.283553610298  -6.960101330163   7.872518546583
196     2  16.012032183201  -6.358811060856   8.413006546564
197     3  -6.419176548777 -10.237415361833   6.399851094114
198     1  -7.041033872995 -10.740535041811   7.394308089906
199     3  -7.661947941068 -10.131979612084   8.343628033038
200     1  -7.065422131201 -12.219594901074   7.459308955837
201     1  -7.616599329615 -12.901715472914   8.567197595465
202     2  -8.068018291140 -12.198511085326   9.275638509604
203     1  -7.609370871947 -14.328952512055   8.726828253611
204     2  -7.958646389958 -14.820288646243   9.650167816467
205     1  -7.482060532411 -15.114969759249   7.550034181471
206     1  -7.002036723951 -14.451378690801   6.411058368342
207     2  -6.548158878297 -14.925190388030   5.538299129238
208     1  -6.689604128658 -13.098183427941   6.407911614915
209     2  -6.241763654721 -12.733857128109   5.480043342782
210     1  -7.509693383178  15.963489451786   7.545009088105
211     1  -7.203252576869  15.193914276353   8.695305842271
212     2  -6.798580390385  15.772947357152   9.522721499701
213     1  -7.304174642421  13.817496020713   8.699159888762
214     2  -7.156005286029  13.192593749415   9.580763344345
215     1  -7.578446035209  13.112699581826   7.529965502122
216     1  -7.780879366068  11.573821463806   7.583420915070
217     3  -8.490087211506  11.067654512007   6.651201639171
218     3  -7.384051670483  10.937066091228   8.649569984164
219     1  -7.834776578043  13.830526270271   6.390290280444
220     2  -8.062135857355  13.422832588154   5.407189675574
221     1  -7.731704553436  15.291140625564   6.405830722400
222     2  -8.107460836996  15.743445014410   5.495981219416
223     3  -6.935201419340  10.530531523088  -6.368703089309
224     1  -7.409211435061  11.123574716266  -7.380546752115
225     3  -7.936666514549  10.607847422890  -8.441996380926
226     1  -7.437916333659  12.615701027023  -7.496077744466
227     1  -7.711214939232  13.266472858757  -8.678044692366
228     2  -8.031955253042  12.654329494663  -9.520320038543
229     1  -7.856796736879  14.635069102384  -8.736153332483
230     2  -8.011006111449  15.142038939302  -9.683644830975
231     1  -7.580869755444  15.464340987089  -7.653318406273
232     1  -7.378512382835  14.815749250894  -6.410517686854
233     2  -7.237709773026  15.380558885828  -5.492066699819
234     1  -7.306367598291  13.438897821835  -6.285366692487
235     2  -6.988884731063  13.074670166618  -5.310352081547
236     1  -7.603375971917 -15.560714768175  -7.725768681472
237     1  -6.926463939110 -14.885320121408  -8.705843458135
238     2  -6.330733870833 -15.509641304962  -9.367604312695
239     1  -6.881078694214 -13.482456245436  -8.780124970331
240     2  -6.408587468924 -12.834324123943  -9.527757087093
241     1  -7.552744875255 -12.759773578802  -7.798796260541
242     1  -7.613134476018 -11.240246159306  -7.895289854420
243     3  -8.475518750918 -10.704168245204  -7.085228292377
244     3  -6.996640415875 -10.698131681450  -8.907275983869
245     1  -8.259339488617 -13.455326193131  -6.733378502000
246     2  -8.725060507022 -12.823042331179  -5.978922460542
247     1  -8.270204004313 -14.866581598893  -6.673834059998
248     2  -8.844572499132 -15.440619506501  -5.949260894433
249     3   6.664069220394  10.259672951105   6.325676267241
250     1   6.993564357287  10.873512791871   7.377608731008
251     3   7.261946904345  10.359389042380   8.543568842738
252     1   6.981007977799  12.389870307773   7.303148397729
253     1   7.266531634217  13.098364211163   8.511463031027
254     2   7.490821175459  12.477555102676   9.374268137082
255     1   7.252978434454  14.451486934104   8.565004277761
256     2   7.284107750324  14.916470139207   9.545294986121
257     1   7.041292755593  15.306713055180   7.443943239525
258     1   6.992592087794  14.579291528298   6.193547285291
259     2   6.898104126158  15.166307925969   5.267906792824
260     1   6.935767922628  13.176632903078   6.144501750831
261     2   6.692620035394  12.498769752637   5.322161881477
262     1   7.200673178314 -15.760887891359   7.518735736830
263     1   6.436392433198 -15.033366534866   8.498816865047
264     2   5.904505217241 -15.565078376363   9.282200982993
265     1   6.651904517886 -13.682864334144   8.615598324388
266     2   6.019693214704 -13.081158414504   9.262411941946
267     1   7.623442444439 -12.973159639673   7.886255100185
268     1   7.771466284886 -11.483847825056   8.147314505787
269     3   8.853070610870 -11.015823941904   7.557758975449
270     3   6.943259336324 -10.740173617309   8.761569273281
271     1   8.475422923271 -13.735269608189   7.065587969819
272     2   9.332812058951 -13.333867299896   6.534458211570
273     1   8.134010494493 -15.050405567333   6.771329711013
274     2   8.924627238570 -15.577623794585   6.243517050909
275     3   6.959677870167 -10.741892033748  -6.245715542218
276     1   7.701110603721 -11.193462405424  -7.216263728791
277     3   8.194522133997 -10.516329536647  -8.171268376374
278     1   7.661480269708 -12.726895298297  -7.352816008182
279     1   8.127122159916 -13.289177308154  -8.573337826930
280     2   8.516123313419 -12.552600403918  -9.278097448326
281     1   8.281824575867 -14.673740440261  -8.560897351915
282     2   8.689327007130 -15.066142355320  -9.484274054705
283     1   7.934754305236 -15.461764525801  -7.477796358440
284     1   7.636846538373 -14.901403910971  -6.212007577160
285     2   7.200071350703 -15.564473646726  -5.464666860493
286     1   7.528322890704 -13.519934634231  -6.284330541553
287     2   7.380422625046 -13.078336355739  -5.305386651315
288     1   7.866582181499  15.541676893959  -7.545429152076
289     1   7.252357214050  14.942260503586  -8.575379775468
290     2   6.741368587205  15.601835206039  -9.266815395011
291     1   7.223289678504  13.544838622559  -8.764950096842
292     2   6.600693764904  13.057323618805  -9.512731343687
293     1   7.888191625780  12.795276971612  -7.792783290621
294     1   7.964748466716  11.276891844974  -7.871870914234
295     3   8.455844732538  10.611167435628  -6.851495994620
296     3   7.412858623859  10.794429602761  -8.938328196215
297     1   8.526094317525  13.418882237383  -6.668574424325
298     2   9.105219057891  12.827229396591  -5.963826920990
299     1   8.492551443061  14.797608307624  -6.563539087647
300     2   9.086113420871  15.285821812058  -5.797609075658
301     3   6.523097966145  -6.440587304546 -10.286350219964
302     1   7.451695767068  -7.108032296402 -10.948016556468
303     3   8.274572594580  -7.872927598594 -10.363908939847
304     1   7.510553653388  -6.895262040127 -12.370737139575
305     1   8.729444652538  -7.255286338703 -12.909227921605
306     2   9.475471357594  -7.759308392149 -12.293330879544
307     1   8.836181650283  -7.282795942637 -14.335828627794
308     2   9.736152255358  -7.628555097174 -14.848713279076
309     1   7.677853379223  -7.081636269240 -15.148211923151
310     1   6.482454261018  -6.627801927895 -14.539623768130
311     2   5.619225378179  -6.621821388244 -15.200964375172
312     1   6.462651570148  -6.508577712071 -13.157310409181
313     2   5.584602008272  -6.079726943662 -12.687791891016
314     1   7.838053365264  -7.288089487089  15.952840068210
315     1   8.922753244566  -6.728843293108  15.206681255169
316     2   9.736954022307  -6.259931161595  15.754112236880
317     1   9.066565366587  -6.944380807882  13.863537301170
318     2   9.881136133118  -6.461100254395  13.326103004271
319     1   8.069714589768  -7.652392004024  13.202853401809
320     1   8.035269359766  -7.752822304586  11.704670978734
321     3   7.188882937228  -8.619432469637  11.246153360152
322     3   8.966484850698  -7.196342300490  11.012719691059
323     1   6.999361032353  -8.227987603084  13.890016333895
324     2   6.299545019431  -8.977430663613  13.495789565327
325     1   6.809017606482  -7.975969309426  15.218639140413
326     2   6.071415608249  -8.536077146495  15.800801473589
327     3  -6.644062457169  -6.409883286588  10.423797141722
328     1  -7.551511159518  -7.120591720592  11.011593602643
329     3  -8.515184617654  -7.729076657576  10.453547372945
330     1  -7.595725816047  -7.034718440052  12.514801535337
331     1  -8.869547271643  -6.947067071326  13.177853054151
332     2  -9.729751272422  -6.825782036920  12.514913020559
333     1  -8.974385423650  -6.854471961460  14.597087833692
334     2  -9.963418511747  -6.773028162469  15.034397908416
335     1  -7.829342604460  -6.905550085919  15.353534069450
336     1  -6.553234758314  -6.933006103237  14.738483222212
337     2  -5.660534001530  -6.839995142885  15.359684419567
338     1  -6.438603852963  -7.071815512965  13.313254314555
339     2  -5.418324654415  -7.140130647603  12.910947058695
340     1  -7.809124843111  -7.048139676218 -15.756299804079
341     1  -8.917832765670  -6.521935025317 -15.065855247206
342     2  -9.847708606537  -6.204781304709 -15.517955431022
343     1  -8.892808841068  -6.581338382467 -13.666634848811
344     2  -9.766002376330  -6.187886708721 -13.153132788256
345     1  -7.858537953262  -7.118692548577 -12.935601137638
346     1  -7.934717767887  -7.194538907032 -11.440907835441
347     3  -7.387551428410  -8.211951095252 -10.882044932123
348     3  -8.706343353709  -6.369083576080 -10.848671850008
349     1  -6.943317553658  -7.888969978846 -13.705968853785
350     2  -6.225398031486  -8.457780704176 -13.126544144251
351     1  -6.847908835311  -7.778089612678 -15.085113871590
352     2  -6.091653296404  -8.444820984920 -15.488470582419
353     3  -4.493608555619   8.315981231999  -5.931526292346
354     1  -3.791227753379   7.959505806925  -6.919565167720
355     3  -4.297913509928   7.515842737781  -8.009860881366
356     1  -2.301503402152   8.025155465900  -6.926312442125
357     1  -1.653603590710   8.439586768325  -5.744782741224
358     2  -2.278430492500   8.714876068697  -4.896371444979
359     1  -0.250045628688   8.588042898048  -5.676152335938
360     2   0.183182918517   8.826847602552  -4.706107357928
361     1   0.504927905345   8.283786506882  -6.797448137699
362     1  -0.144574710487   7.873763284351  -8.057778228696
363     1  -1.547394903829   7.692544225574  -8.084162359214
364     2  -2.111170860951   7.408113448312  -8.977404182749
365     1   0.757620175353   7.560287103657  -9.186421680411
366     2   0.312957655429   7.306695294650 -10.154410970639
367     1   2.127687461068   7.711437030273  -9.008845733795
368     2   2.807946729106   7.440034756700  -9.820230193948
369     1   2.713279197064   7.914072287216  -7.733772954361
370     1   1.929010506927   8.272472600226  -6.679328460665
371     2   2.441242582575   8.392298845279  -5.724520476820
372     1   4.243897602090   7.966860068172  -7.708827459645
373     3   4.806435637119   8.543786255192  -8.713821436082
374     3   4.916812537887   7.495450486417  -6.695914983787
375     3   4.664184210910  -8.593196160814  -6.024174198071
376     1   3.938224775980  -8.220027154341  -6.989649666619
377     3   4.445688966738  -7.593905523794  -8.076772245590
378     1   2.488146886451  -8.295055042085  -6.937859648435
379     1   1.761759721813  -8.295924178936  -5.697536047541
380     2   2.312491158173  -8.226284225630  -4.767712483475
381     1   0.441232500057  -8.092355708055  -5.614450658892
382     2   0.036079528963  -7.970217649865  -4.614846027600
383     1  -0.372241375298  -8.080254686176  -6.801625284537
384     1   0.250729658950  -8.057521647535  -8.017985831143
385     1   1.712965572305  -8.063423479013  -8.082471425958
386     2   2.251456080012  -7.912114510875  -9.018369127117
387     1  -0.550160249803  -8.146158419855  -9.215737514473
388     2   0.003196125882  -8.266955374717 -10.147873657348
389     1  -1.907511578632  -8.419955821950  -9.122379922583
390     2  -2.422098800908  -8.667772615313 -10.053039308689
391     1  -2.626779731154  -8.239237827296  -7.882887263561
392     1  -1.825645400194  -8.212781225382  -6.712309279420
393     2  -2.293350764830  -8.093546310837  -5.730762495419
394     1  -4.140497422427  -8.091786483997  -7.879890499906
395     3  -4.770757903366  -8.504479314734  -8.931758078921
396     3  -4.683041958646  -7.500174603465  -6.859674958474
397     3   8.178853558583   5.933946830969   4.497654936981
398     1   7.765920504739   6.941980517308   3.795447608301
399     3   7.209262563551   7.990882477367   4.198662012001
400     1   7.959770543937   6.837881688194   2.319005886132
401     1   8.172013031220   5.547496291993   1.719968741232
402     2   8.333360178331   4.755483289553   2.451316849646
403     1   8.138191148623   5.403840899912   0.359364145827
404     2   8.206850454603   4.462947044948  -0.183719595169
405     1   7.928224486961   6.559302432964  -0.492747154705
406     1   7.807426956006   7.866343476083   0.094509408710
407     1   7.852090331308   7.975213532235   1.523842906896
408     2   7.644427112414   8.951342898451   1.974305824847
409     1   7.915864177364   9.033012944894  -0.731300166846
410     2   8.006112496334   9.994543201330  -0.223412211073
411     1   7.842209903280   8.906418119989  -2.114184784965
412     2   7.997166540654   9.725761572167  -2.816039646108
413     1   7.652645131658   7.591759877668  -2.689158104756
414     1   7.791818571025   6.437516893427  -1.890088006014
415     2   7.815602225227   5.413806038532  -2.277010734604
416     1   7.662074343754   7.552367063707  -4.192736254803
417     3   8.132868291358   8.566040283969  -4.848888849675
418     3   7.323567635459   6.461433776975  -4.826371237248
419     3  -7.897986168575   6.091951874113  -4.647251185608
420     1  -7.631128902144   7.071736283077  -3.891105730268
421     3  -7.351921079343   8.277757492088  -4.261613794930
422     1  -7.592885553038   6.840971448807  -2.387013316563
423     1  -7.490484224469   5.545916938098  -1.786711834519
424     2  -7.321488986649   4.653426727412  -2.383893446137
425     1  -7.751585614940   5.349019696011  -0.452020434147
426     2  -7.753982536621   4.372177662138   0.031532506544
427     1  -7.938093587263   6.480690829918   0.389234333471
428     1  -8.065650605863   7.776382094795  -0.189137224016
429     1  -7.982187625492   7.922013442486  -1.601110781083
430     2  -8.040334540298   8.901800238506  -2.075053324437
431     1  -8.276124798614   8.940191808054   0.665733505209
432     2  -8.407561549928   9.960950275106   0.315850008880
433     1  -8.353607336222   8.778804562773   1.994018063469
434     2  -8.502244867288   9.627640065814   2.649302344974
435     1  -8.177210883090   7.479420122934   2.576928697690
436     1  -7.970196046386   6.381558198010   1.840477791673
437     2  -7.891617356885   5.418337842735   2.340226284317
438     1  -8.177552417922   7.509055700499   4.112352052945
439     3  -8.845068597683   8.506114120933   4.556731694453
440     3  -7.688557047927   6.507026929662   4.694328891776
441     3   4.285272581934   7.913796188499   5.818697860720
442     1   3.580226873554   7.479267752273   6.796225988079
443     3   4.080615473530   6.994332238849   7.879745767013
444     1   2.068853909179   7.570844673386   6.695087712415
445     1   1.439470579991   7.587634865920   5.361082206736
446     2   2.116198463173   7.320006774704   4.551306353230
447     1   0.062841985749   7.579161154860   5.319739739985
448     2  -0.371301037803   7.382986359016   4.334481547915
449     1  -0.733570199247   7.627696061796   6.483284152373
450     1  -0.165415456846   7.818136859812   7.757713336600
451     1   1.251000916549   7.716147508018   7.824777898193
452     2   1.809308172051   7.694833926156   8.766199747173
453     1  -0.971604956852   7.957814608082   8.923033944879
454     2  -0.459671779904   7.976706421067   9.876500358433
455     1  -2.287765177178   7.929883431483   8.884823260885
456     2  -2.940315685404   8.097485684498   9.727170692465
457     1  -2.927033515471   7.742467298653   7.613861244448
458     1  -2.178468172557   7.557524644200   6.478243058594
459     2  -2.727542263509   7.401323837818   5.547371383223
460     1  -4.427000956061   7.723520138608   7.589948589862
461     3  -4.998361155244   8.409792135701   8.451989927941
462     3  -5.013574116145   7.247159723712   6.474901544199
463     3  -4.391214341039  -7.505864119999   6.096969565797
464     1  -3.613888251153  -7.206026198913   7.101812137595
465     3  -4.074106799196  -6.810055801884   8.234300437844
466     1  -2.138821645655  -7.357804059023   6.977846991496
467     1  -1.522917283120  -7.544689031452   5.686901670526
468     2  -2.219308368978  -7.651841013046   4.854494589689
469     1  -0.164392102412  -7.706250622719   5.670228351288
470     2   0.348647791031  -8.090253516235   4.786155293648
471     1   0.625199611206  -7.624961261401   6.861584971338
472     1  -0.022405034505  -7.308216820819   8.074884262641
473     1  -1.405223387133  -7.296540563910   8.157614489050
474     2  -1.949600205198  -7.127889719755   9.082068240754
475     1   0.772762383503  -7.227831501134   9.250648222095
476     2   0.277542804036  -7.056211255684  10.207164164280
477     1   2.160806347514  -7.484832050935   9.158162869773
478     2   2.786622895403  -7.359379788374  10.041891105011
479     1   2.804894954220  -7.758588799871   7.933034734855
480     1   2.071781966944  -7.712204925033   6.781950412752
481     2   2.511523531149  -7.879612488552   5.800319288278
482     1   4.336924574011  -7.831050185421   7.921595618840
483     3   5.028047368624  -8.144372510432   8.957637546062
484     3   4.908394246630  -7.557049115756   6.758832057341
485     3  -6.020300225118  -4.358720456461   7.884233156855
486     1  -7.053631195265  -3.678576259717   7.589752176679
487     3  -8.159308917844  -4.200719625647   7.215554025320
488     1  -6.915331473322  -2.197841131123   7.746890729361
489     1  -5.636963331112  -1.542845907507   7.615588792732
490     2  -4.725677147094  -2.132590122226   7.544003419171
491     1  -5.553004164602  -0.178998312357   7.824991622773
492     2  -4.620709135624   0.366914715499   7.673630537032