Geometry = GenFormat {
216  S
C  H  N
1     1  -2.316241624121   1.772993660444  -6.621995500490
2     1  -4.662024728457   1.119695939975  -6.617904547655
3     1  -4.058802946502   3.481185000107  -6.620674341904
4     2  -3.029114322527  -0.258937309160  -6.616156357982
5     1  -3.308002086943   0.776597514926  -6.615281001797
6     2  -6.071731022760   2.751539268942  -6.625150448023
7     2  -1.945356567289   3.876628491382  -6.625183934896
8     1  -2.700445688886   3.115041008399  -6.621355347848
9     1  -5.034160148864   2.480985025040  -6.621729711694
10     1  -2.322463570358   1.774017925662  -3.308761611361
11     1  -4.664317841700   1.121683937850  -3.309095299950
12     1  -4.056674486447   3.481707860480  -3.305984585826
13     2  -3.034467256057  -0.257408424231  -3.307932661705
14     1  -3.310381477552   0.779057119284  -3.309317617895
15     2  -6.070525719737   2.753655499621  -3.312553219950
16     2  -1.937416743420   3.873738217221  -3.305803510076
17     1  -2.698848408004   3.118570345148  -3.307883875443
18     1  -5.035781150190   2.475437545299  -3.312471570304
19     1  -2.322375485372   1.775497057001  -0.002156238528
20     1  -4.668242309212   1.122080503394   0.003039541084
21     1  -4.056196128360   3.480902556224  -0.001675938865
22     2  -3.036126324834  -0.259191074875  -0.002531043366
23     1  -3.308713974443   0.778297468005   0.000647396717
24     2  -6.064203823815   2.758812006975   0.002077581466
25     2  -1.941845723712   3.877059883999   0.001124700556
26     1  -2.696851644109   3.115674688430  -0.002887607044
27     1  -5.028544696146   2.481207183540  -0.002812380292
28     1  -2.317316299051   1.774757483301   3.313823245156
29     1  -4.662455512851   1.123662250032   3.308659050741
30     1  -4.057899536756   3.480508221318   3.307818464878
31     2  -3.032883483981  -0.257102988597   3.311455657039
32     1  -3.311383236434   0.778966309493   3.312071592254
33     2  -6.071680902895   2.758675017576   3.306102766650
34     2  -1.942887148111   3.878027386108   3.309626912387
35     1  -2.699715889762   3.118028697441   3.313850564175
36     1  -5.036279915732   2.478863243145   3.312339487146
37     1  -2.320474981858   1.776943390793   6.617098622741
38     1  -4.663633149213   1.122400641756   6.620720549282
39     1  -4.061751813797   3.476534664806   6.624420652294
40     2  -3.036701928225  -0.255452027889   6.624304193404
41     1  -3.307691930425   0.781796280141   6.618828214639
42     2  -6.067592151091   2.758878931915   6.621282239175
43     2  -1.935919721667   3.878219049397   6.622987722547
44     1  -2.695225735606   3.121392722649   6.623302326951
45     1  -5.032602964088   2.479749220020   6.618798761043
46     1  -2.322479322345   1.772322074048   9.928365032719
47     1  -4.662083164403   1.119081893422  -9.926140211745
48     1  -4.060794543925   3.483306485982  -9.927796234982
49     2  -3.034927498121  -0.258012482745  -9.926974224029
50     1  -3.310643476808   0.777234524863  -9.927867973110
51     2  -6.071614791019   2.750732283822   9.929842522588
52     2  -1.942426030877   3.880927372311  -9.928889243836
53     1  -2.695713628332   3.117346960434   9.928449219257
54     1  -5.035234392374   2.474771352473  -9.925923170648
55     1   2.323085529230  -1.770818975726  -6.620867939987
56     1   4.664694661251  -1.116975332246  -6.624176102809
57     1   4.061926753979  -3.475854404970  -6.617882419611
58     2   3.037169851080   0.260867482662  -6.621035606096
59     1   3.312711372981  -0.775422910837  -6.624934600102
60     2   6.066205010770  -2.753590088449  -6.615460970984
61     2   1.937663710278  -3.876642098478  -6.622355805810
62     1   2.696997112617  -3.119812244173  -6.618763900075
63     1   5.030728900348  -2.476914200363  -6.618499278205
64     1   2.317655907055  -1.778565404382  -3.307689371019
65     1   4.665652439578  -1.121690727108  -3.309614929085
66     1   4.057189473833  -3.478953178369  -3.308379576212
67     2   3.033499567763   0.260000602108  -3.309372484423
68     1   3.307650668607  -0.776315912363  -3.308309837092
69     2   6.066524451992  -2.752751379821  -3.313294583303
70     2   1.942247862912  -3.875316813620  -3.307511215276
71     1   2.699624133192  -3.116786931026  -3.305299412507
72     1   5.030055216230  -2.478112973071  -3.313396569249
73     1   2.322258471976  -1.772637599039  -0.001455609853
74     1   4.667548950687  -1.121788201185   0.004144586660
75     1   4.054663348089  -3.480000375426  -0.004262283827
76     2   3.034286034539   0.255516741838   0.000672957041
77     1   3.313199225060  -0.781184705807  -0.004670378887
78     2   6.068972970659  -2.758972695912  -0.003180427990
79     2   1.942075142574  -3.883528214641   0.005052950028
80     1   2.696177486407  -3.121978251156  -0.001713746282
81     1   5.032608897393  -2.483142949676  -0.004409678024
82     1   2.321256973180  -1.771442807035   3.309409106853
83     1   4.665503149023  -1.124078173358   3.310187201488
84     1   4.057700650111  -3.476121532220   3.309669415679
85     2   3.032027929350   0.258374508827   3.311244435478
86     1   3.312476091156  -0.775747995566   3.314092931552
87     2   6.067133355305  -2.753519888140   3.306430371094
88     2   1.941508915422  -3.879965084224   3.310127847347
89     1   2.694744606046  -3.116417631065   3.308985797372
90     1   5.030864453226  -2.478951534247   3.313077345266
91     1   2.315679847778  -1.775492980516   6.623002331700
92     1   4.661523886965  -1.117880031726   6.619005989732
93     1   4.056436382431  -3.482523785752   6.621061874751
94     2   3.036401000195   0.259948954180   6.616228481589
95     1   3.315057953815  -0.775452153217   6.620029828862
96     2   6.072362756114  -2.758174682120   6.616428570305
97     2   1.939519413312  -3.878082751193   6.615925332509
98     1   2.697166318513  -3.118743727583   6.616612139613
99     1   5.036230114208  -2.481805895495   6.624675767264
100     1   2.321344627145  -1.772656966859  -9.928310785847
101     1   4.666568909401  -1.121531000476  -9.929250394118
102     1   4.060454377961  -3.483841729205   9.926259270931
103     2   3.031970630061   0.255995897341   9.926564230323
104     1   3.314002686865  -0.779047226927   9.927405924700
105     2   6.066953665546  -2.757739820151   9.929725878649
106     2   1.940457236329  -3.873532007288   9.928491543136
107     1   2.702509590567  -3.118408794866  -9.925209938690
108     1   5.030637346090  -2.478190104853   9.928337438683
109     2  -5.331102939606  -0.940471434142  -6.621030091312
110     1   5.631476510807  -0.101959713858  -6.621590645128
111     2   5.333044880063   0.939070153173  -6.623169425297
112     1  -5.630605919352   0.099796212686  -6.623907547450
113     3   6.902583694101  -0.457406370714  -6.624778449236
114     3  -6.902182778518   0.458580602045  -6.620617077984
115     2  -5.335874680010  -0.942612224114  -3.311624838370
116     1   5.630979326931  -0.099543626459  -3.312663635511
117     2   5.328881083408   0.939810045248  -3.305285817111
118     1  -5.627033933041   0.099865953809  -3.313525160998
119     3   6.899969636624  -0.455959516990  -3.314510135809
120     3  -6.902373035958   0.457599054448  -3.310047248096
121     2  -5.331232640976  -0.939457828445   0.003315200518
122     1   5.628858039397  -0.102660135887  -0.004325685599
123     2   5.333908847164   0.939910092336  -0.002756449338
124     1  -5.631464861373   0.102307682433   0.000906626006
125     3   6.899897839080  -0.453177297704  -0.000428809326
126     3  -6.906298243634   0.459917862317  -0.004925849109
127     2  -5.337619613111  -0.941663211428   3.312100451113
128     1   5.627915791055  -0.101960288172   3.314237759552
129     2   5.336682562051   0.940411948409   3.309329006134
130     1  -5.633497038691   0.100969018723   3.310333941809
131     3   6.902139516083  -0.459309336396   3.312342440641
132     3  -6.902932366935   0.455522256023   3.310924786767
133     2  -5.330615545450  -0.940113370456   6.621467245610
134     1   5.630054898531  -0.106301355359   6.618881083104
135     2   5.336615545899   0.936289538213   6.623916928212
136     1  -5.631472364658   0.101517626193   6.616408682433
137     3   6.901028462248  -0.460146535570   6.617506836691
138     3  -6.904828352345   0.457355149670   6.623149951402
139     2  -5.334145595445  -0.939154169752  -9.926256053490
140     1   5.633551786833  -0.106940792431  -9.929564409669
141     2   5.332854512077   0.934510384938  -9.926236765021
142     1  -5.633863378733   0.102639550663   9.925516526613
143     3   6.907777396373  -0.454853239163   9.927471486621
144     3  -6.900404184900   0.453465709961   9.925437673573
145     2  -0.200228990309   2.222971962438  -6.616684642745
146     1   0.956621422653  -1.446751341171  -6.624555142239
147     2   0.199937279478  -2.222041439022  -6.619011458241
148     1  -0.955827097513   1.447570881368  -6.625083043178
149     3   0.624324874630  -0.165102110036  -6.620460775109
150     3  -0.622554126362   0.164233642404  -6.622219167512
151     2  -0.198133942578   2.226637725743  -3.311700372871
152     1   0.956544151030  -1.446064003664  -3.309866085920
153     2   0.203072247114  -2.226194904692  -3.313796017557
154     1  -0.952623024328   1.449543601387  -3.310795438114
155     3   0.621244877670  -0.166313288505  -3.305233177143
156     3  -0.629313606248   0.166620042060  -3.312232019985
157     2  -0.201637629037   2.229027358389  -0.002955465744
158     1   0.955550492532  -1.445358660029   0.002408582974
159     2   0.201784888078  -2.224153554217  -0.000306884767
160     1  -0.953087422886   1.447376727768  -0.001455205494
161     3   0.624952122409  -0.169123349413   0.003880961424
162     3  -0.622073139218   0.171626160023   0.003594199881
163     2  -0.202531772309   2.226299533639   3.314526822618
164     1   0.957257254427  -1.444933260881   3.306773379921
165     2   0.200622500391  -2.221794574645   3.307766860317
166     1  -0.954077399881   1.447338710082   3.308011689268
167     3   0.628550803108  -0.170152129628   3.310094526689
168     3  -0.626738018589   0.169501811988   3.308667313506
169     2  -0.202412580232   2.225150592684   6.616212185612
170     1   0.957521665227  -1.444217407700   6.624792804892
171     2   0.204342936163  -2.223693731495   6.620672975761
172     1  -0.957123679634   1.445771780076   6.622168908839
173     3   0.626206227976  -0.163860653119   6.622929291113
174     3  -0.626191393734   0.165388507300   6.618234043186
175     2  -0.196449261153   2.224187169459   9.926745912746
176     1   0.951183029707  -1.450830792774  -9.928695559866
177     2   0.199869999471  -2.230667110931  -9.924716337938
178     1  -0.953068506238   1.449723956470  -9.928895903255
179     3   0.626962760896  -0.164922517313   9.927903388301
180     3  -0.623367090162   0.164473401329  -9.925985273909
181     2  -5.506144181127   5.088927639288  -6.621258135940
182     1   4.453197098794  -4.823789089372  -6.625027020043
183     2   5.505841281168  -5.086487165980  -6.623915800667
184     1  -4.455855460128   4.825068645094  -6.615467856756
185     3   3.509780719586  -5.749613201022  -6.618755037379
186     3  -3.516572757297   5.748562315935  -6.620904284949
187     2  -5.507167096942   5.087993263921  -3.311763382562
188     1   4.461024678636  -4.827857827739  -3.312196868846
189     2   5.512974326314  -5.086311248019  -3.313339313096
190     1  -4.456064276615   4.827534087745  -3.308893267949
191     3   3.512244264867  -5.751753142497  -3.313721224330
192     3  -3.516293153594   5.752314253835  -3.305767026744
193     2  -5.508936382147   5.086065535251   0.005091464073
194     1   4.459805847277  -4.828499052915  -0.000547343485
195     2   5.511881612021  -5.087207218005  -0.002476028222
196     1  -4.456156003584   4.826383222770   0.003064051476
197     3   3.517608464547  -5.753351006348  -0.000458327524
198     3  -3.515190363013   5.749612388952  -0.002625717086
199     2  -5.507555278106   5.086680204480   3.309177157166
200     1   4.459142146246  -4.821235243056   3.311436301059
201     2   5.507255034979  -5.091553278887   3.310230101838
202     1  -4.457317789797   4.824987084572   3.306380136319
203     3   3.514729812644  -5.752467380953   3.306226696859
204     3  -3.510682373134   5.752428061561   3.307837197706
205     2  -5.508633688192   5.084704751393   6.615203932476
206     1   4.460781928298  -4.825867165428   6.621920552341
207     2   5.509940004094  -5.090903151655   6.617831300512
208     1  -4.457517001585   4.821951109303   6.618576713021
209     3   3.515345128277  -5.746867691020   6.622898922623
210     3  -3.515675412262   5.753347516059   6.624612046067
211     2  -5.507207865640   5.090146016955   9.928228790848
212     1   4.457616283056  -4.826750385337  -9.925593816483
213     2   5.507760017459  -5.092695721894  -9.926418373284
214     1  -4.455998264837   4.829215139350   9.927880275422
215     3   3.515664907906  -5.747575080864   9.927757552120
216     3  -3.518235950401   5.753367897728   9.925613429366
0.000000000000   0.000000000000   0.000000000000
14.724000000000   0.000000000000   0.000000000000
-7.362000000000  12.751358045322   0.000000000000
0.000000000000   0.000000000000  19.859999000000
}
Driver = {}
Hamiltonian = DFTB {
  charge = 0
  SCC = Yes
  SCCTolerance = 1.0e-4
  MaxSccIterations = 250
  ThirdOrderFull = Yes
  ReadInitialCharges = Yes
  KPointsAndWeights = {
0.0 0.0 0.0 1.0
  }
  Dispersion = DftD3 {
    Damping = BeckeJohnson {
      a1 = 0.746
      a2 = 4.191
    }
    s6 = 1.0
    s8 = 3.209
    cutoff = 94.868329805051374
    cutoffcn = 40.000000000000000
    threebody = No
    hhrepulsion = No
  }
  HubbardDerivs = {
    C = -0.1492
    H = -0.1857
    N = -0.1535
  }
  SlaterKosterFiles = Type2FileNames {
    Prefix = "../slakos/3ob-3-1/"
    Separator = "-"
    Suffix = ".skf"
    LowerCaseTypeName = No
  }
  MaxAngularMomentum = {
    C = "p"
    N = "p"
    H = "s"
  }
  Filling = Fermi {
    Temperature [Kelvin] = 0.0
    IndependentKFilling = No
  }
  HCorrection = Damping {
    Exponent = 4.0000000000000000
  }
  PolynomialRepulsive = {}
  ShellResolvedSCC = No
  OldSKInterpolation = No
  EwaldParameter = 0.0000000000000000
  EwaldTolerance = 1.0000000000000001E-009
  ConvergentSCCOnly = Yes
  SpinPolarisation = {}
  ElectricField = {}
  Solver = RelativelyRobust {}
  OnSiteCorrection = {}
  Solvation = {}
  Electrostatics = GammaFunctional {}
  ThirdOrder = No
  Differentiation = FiniteDiff {
    Delta = 1.2207031250000000E-004
  }
  ForceEvaluation = "Traditional"
  Mixer = Broyden {
    MixingParameter = 0.20000000000000001
    InverseJacobiWeight = 1.0000000000000000E-002
    MinimalWeight = 1.0000000000000000
    MaximalWeight = 100000.00000000000
    WeightFactor = 1.0000000000000000E-002
  }
}
Options = {
  WriteDetailedOut = Yes
  WriteAutotestTag = No
  WriteDetailedXML = No
  WriteResultsTag = No
  RestartFrequency = 20
  RandomSeed = 0
  WriteHS = No
  WriteRealHS = No
  MinimiseMemoryUsage = No
  ShowFoldedCoords = No
  TimingVerbosity = 1
  ReadChargesAsText = No
  WriteCharges = Yes
  WriteChargesAsText = No
  SkipChargeTest = No
  BinaryAccessTypes = {
 "stream"
  }
}
Analysis = {
  MullikenAnalysis = Yes
  CalculateForces = Yes
  ProjectStates = {}
  WriteEigenvectors = No
  WriteBandOut = Yes
  WriteNetCharges = No
  AtomResolvedEnergies = No
}
ParserOptions = {
  ParserVersion = 14
  WriteHSDInput = Yes
  StopAfterParsing = No
  IgnoreUnprocessedNodes = No
}
Reks = None {}
ExcitedState = {}
