Geometry = GenFormat {
216  S
C  H  N
1     1  -2.329895310882   1.778566413660  -6.621882544206
2     1  -4.652321129548   1.128240971394  -6.618046673148
3     1  -4.057231406408   3.466322216196  -6.620520839297
4     2  -3.005568482056  -0.324636361071  -6.615725817295
5     1  -3.309251123306   0.781809754984  -6.615469987868
6     2  -6.142385463891   2.765446237671  -6.625122526567
7     2  -1.899404365254   3.929656418578  -6.625082287963
8     1  -2.704794823451   3.112832997652  -6.621407714732
9     1  -5.028165165254   2.477098816289  -6.621645288213
10     1  -2.332008777352   1.779723774251  -3.308854258534
11     1  -4.653960001592   1.128906506970  -3.309288775633
12     1  -4.056662865296   3.467020653077  -3.306192420629
13     2  -3.010187466202  -0.320308859734  -3.308120724477
14     1  -3.311419170786   0.783601392355  -3.309236575864
15     2  -6.149361371331   2.767534934037  -3.312934253416
16     2  -1.893239835778   3.928021480454  -3.305880233736
17     1  -2.703701691066   3.115731648612  -3.307780193574
18     1  -5.028165916220   2.475301481612  -3.312210857249
19     1  -2.331604415160   1.779212507669  -0.002110565180
20     1  -4.655072207968   1.129812138175   0.002692566798
21     1  -4.053937582607   3.467544857166  -0.001698078038
22     2  -3.009803320336  -0.321917128722  -0.001849327686
23     1  -3.312215303996   0.783264440286   0.000612924245
24     2  -6.135070940962   2.772034154832   0.001507738642
25     2  -1.894982000550   3.929021852780   0.000747809194
26     1  -2.702429300824   3.114715136897  -0.002793086987
27     1  -5.024555676349   2.478292541228  -0.002525824404
28     1  -2.330747331294   1.780217904061   3.313661852084
29     1  -4.654591380160   1.129986228533   3.308948901129
30     1  -4.057416485614   3.466549597175   3.308155438538
31     2  -3.010661885607  -0.319256729608   3.311225354278
32     1  -3.310929065854   0.784171677643   3.312025614552
33     2  -6.139716808356   2.768530002660   3.306551259177
34     2  -1.898401450205   3.931019139180   3.309965888680
35     1  -2.703737201777   3.114973933965   3.313644633626
36     1  -5.029908354288   2.477412213105   3.311997345171
37     1  -2.331157849498   1.782782979803   6.617452443018
38     1  -4.653405112687   1.129589902926   6.620524817704
39     1  -4.056819561951   3.464864789518   6.624158688132
40     2  -3.008721236393  -0.322104218330   6.623494383973
41     1  -3.310756837371   0.786332491958   6.618898193571
42     2  -6.139311262936   2.770359447445   6.620667036954
43     2  -1.890620312965   3.934990138624   6.623304116738
44     1  -2.701934469992   3.117880700148   6.623166362344
45     1  -5.028298622331   2.476148177819   6.619001309733
46     1  -2.331635990148   1.778500554177   9.928635181069
47     1  -4.653440622649   1.127040258307  -9.926414109984
48     1  -4.057949887841   3.467423785355  -9.927975473932
49     2  -3.007576497879  -0.331076311353  -9.927175951808
50     1  -3.311680548512   0.782168820185  -9.927877475639
51     2  -6.141995213631   2.761552775306  -9.929633430661
52     2  -1.895308521271   3.931622486536  -9.929597661906
53     1  -2.703263685814   3.115348280422   9.928579623214
54     1  -5.028451070543   2.474589435736  -9.925997293467
55     1   2.333639724605  -1.778075007460  -6.620982927729
56     1   4.654219163641  -1.126268986148  -6.623950262412
57     1   4.057182363032  -3.463994205295  -6.618042872445
58     2   3.011417283429   0.326128686605  -6.622097664140
59     1   3.313514795748  -0.780015051634  -6.624781317922
60     2   6.140074827476  -2.766407281792  -6.615673083501
61     2   1.891205344405  -3.932909024424  -6.621969539171
62     1   2.703207597467  -3.114751851786  -6.618840859007
63     1   5.026528258733  -2.473252895867  -6.618577701854
64     1   2.330776887429  -1.780793758580  -3.307576007704
65     1   4.653269686613  -1.128133478067  -3.309802145754
66     1   4.056529170877  -3.467370935098  -3.308569064986
67     2   3.005964194203   0.330168550668  -3.309338247177
68     1   3.310022517496  -0.783402852739  -3.308304682527
69     2   6.136632069424  -2.766088777054  -3.314038744895
70     2   1.895372445892  -3.931620321168  -3.306948283920
71     1   2.703981236425  -3.115359313578  -3.305429220910
72     1   5.025616213512  -2.475847828540  -3.313160943454
73     1   2.332915515723  -1.780050528396  -0.001479125599
74     1   4.656300860319  -1.131521597203   0.003430694672
75     1   4.054272046035  -3.468637654505  -0.004137345362
76     2   3.012438432243   0.313023244644  -0.000047892741
77     1   3.314132103268  -0.784856562501  -0.004259355878
78     2   6.137635044928  -2.772850463785  -0.003362081960
79     2   1.891225110340  -3.939493761174   0.004858905731
80     1   2.701139280846  -3.117155031657  -0.001671086746
81     1   5.027315460331  -2.479248844495  -0.004150583831
82     1   2.333189793661  -1.777440356949   3.309477655208
83     1   4.654200041790  -1.130143958285   3.310542954890
84     1   4.054825196316  -3.464303055607   3.309796959317
85     2   3.007545170667   0.332273283000   3.311730772448
86     1   3.313435179886  -0.782230218521   3.313823739301
87     2   6.136975462592  -2.767056751890   3.307289419704
88     2   1.895726462976  -3.930480066867   3.309558079236
89     1   2.700827214571  -3.113606105774   3.309025549460
90     1   5.026731249938  -2.476400514746   3.312795724185
91     1   2.331418346773  -1.779792448890   6.622835462862
92     1   4.653265873772  -1.129433904665   6.619119340509
93     1   4.056873805404  -3.467525572138   6.621058286968
94     2   3.011925800362   0.327045757623   6.616581954014
95     1   3.312212978967  -0.781960431622   6.620086505426
96     2   6.143091091680  -2.770161973455   6.617859095822
97     2   1.895335530894  -3.930929234542   6.615591533961
98     1   2.701367968583  -3.115687317991   6.616914146720
99     1   5.028433641707  -2.478409665073   6.624348909997
100     1   2.332301914118  -1.779191085962  -9.928443844729
101     1   4.655975012749  -1.130157523209  -9.929458745702
102     1   4.058292122940  -3.468433186699   9.926779505837
103     2   3.010683508370   0.319122156009   9.926367448551
104     1   3.313728268374  -0.783296678022   9.927598007082
105     2   6.130202548973  -2.766351883005   9.929518288268
106     2   1.898118746742  -3.926410152324   9.929953927036
107     1   2.706305779246  -3.115181186424  -9.925602128261
108     1   5.026864790917  -2.477165623136   9.928369501419
109     2  -5.296046091151  -1.039479195995  -6.622136582272
110     1   5.649957331143  -0.097397881861  -6.621775897233
111     2   5.298130748473   1.034357972606  -6.622333027737
112     1  -5.648484751024   0.097311974435  -6.623620820743
113     3   6.883479878963  -0.487028438670  -6.624774425320
114     3  -6.882557018058   0.487820537376  -6.620664625342
115     2  -5.297001121796  -1.039599369046  -3.312467668498
116     1   5.648005621572  -0.096684546721  -3.312501786986
117     2   5.292654058994   1.040448591305  -3.305097035857
118     1  -5.647826443307   0.096658821345  -3.313306874986
119     3   6.881775450676  -0.485635985869  -3.314645926680
120     3  -6.881583571951   0.486869915903  -3.310090854242
121     2  -5.298949293612  -1.025594446587   0.004296605683
122     1   5.647068134463  -0.097326433995  -0.003966027970
123     2   5.295941403308   1.030959101156  -0.003870302070
124     1  -5.651093304710   0.098279769304   0.000897296400
125     3   6.880838026100  -0.484359245271  -0.000444296528
126     3  -6.885100341617   0.490137584668  -0.004962351619
127     2  -5.301499100489  -1.032828172374   3.312045520840
128     1   5.648249193179  -0.098966657327   3.313997768278
129     2   5.297581996062   1.037541928330   3.309981578976
130     1  -5.649483982239   0.097845301080   3.310309296608
131     3   6.881389792232  -0.489072841680   3.312442603411
132     3  -6.883937749294   0.485916902976   3.310867140087
133     2  -5.298209361799  -1.027344417041   6.619697655366
134     1   5.648785917617  -0.100759294169   6.618928290886
135     2   5.300473438514   1.030657979969   6.624117995859
136     1  -5.649530315851   0.098012224550   6.616820671656
137     3   6.882298091693  -0.489974783735   6.617407551309
138     3  -6.884891547659   0.486615348012   6.623046214617
139     2  -5.298995969686  -1.031564749714  -9.926432190832
140     1   5.652415661896  -0.101129646569  -9.929517937487
141     2   5.297771834395   1.025181319893  -9.925614720786
142     1  -5.648358335641   0.097558179193   9.925908052521
143     3   6.885233017630  -0.488438889566   9.927392145039
144     3  -6.880733487981   0.487365709579   9.925287058170
145     2  -0.137389006051   2.301669582850  -6.617669546264
146     1   0.943921470199  -1.431998552629  -6.624214667333
147     2   0.140548434164  -2.299084736758  -6.619932074115
148     1  -0.941103448804   1.431897184902  -6.624767480216
149     3   0.663392891573  -0.168479189358  -6.620568542330
150     3  -0.661885555471   0.168251397315  -6.622409094900
151     2  -0.135785987494   2.302541488478  -3.311462104942
152     1   0.941584955161  -1.432306070691  -3.309807574802
153     2   0.145182986314  -2.297449699128  -3.315232058452
154     1  -0.941781999958   1.434792023037  -3.310844237043
155     3   0.658839654606  -0.169507495294  -3.305179766729
156     3  -0.665748329336   0.169782403609  -3.312216830089
157     2  -0.141517516202   2.303918175585  -0.004095930487
158     1   0.943017902914  -1.432522014841   0.002308698418
159     2   0.141352075000  -2.300998058287  -0.000682645692
160     1  -0.941183657758   1.435060235496  -0.001412311609
161     3   0.663217840578  -0.170677288617   0.003953713179
162     3  -0.660340974828   0.173234469156   0.003614283477
163     2  -0.134781024069   2.307321427735   3.313819360381
164     1   0.943474683105  -1.432431067462   3.306942435234
165     2   0.144277587650  -2.295451322418   3.306902581731
166     1  -0.941120077795   1.433322457486   3.308331170131
167     3   0.662538243371  -0.170334849539   3.310038052612
168     3  -0.660885643625   0.170755430429   3.308561926197
169     2  -0.146756483238   2.293742529277   6.617836495719
170     1   0.942639671556  -1.430236503760   6.624607306271
171     2   0.144291068936  -2.295637415803   6.620897279512
172     1  -0.943236744886   1.432156079910   6.621765894679
173     3   0.662679241058  -0.166499587383   6.623058939691
174     3  -0.662689229660   0.168221322555   6.618326589048
175     2  -0.134643108464   2.302840817214   9.926280118158
176     1   0.940602375140  -1.434962056429  -9.928687185469
177     2   0.136412400929  -2.305630107195  -9.923976444605
178     1  -0.941279591453   1.433257697601  -9.929000494677
179     3   0.663725869446  -0.169467381484   9.927866059898
180     3  -0.660812133792   0.169241480243  -9.925937225579
181     2  -5.607174876822   5.104442321486  -6.620079029824
182     1   4.448615477707  -4.842567106729  -6.624685939537
183     2   5.594649493011  -5.101815069933  -6.625587222938
184     1  -4.451365492838   4.843009656231  -6.615843427420
185     3   3.494012869795  -5.717074005353  -6.618781965046
186     3  -3.499360024759   5.717686453953  -6.620803014792
187     2  -5.609235464106   5.104845603418  -3.313172948456
188     1   4.453456047309  -4.844605421389  -3.312201788672
189     2   5.609800733098  -5.104120964233  -3.313094758756
190     1  -4.451240717707   4.844139183588  -3.308810729140
191     3   3.496626620824  -5.716391391434  -3.313708993921
192     3  -3.498614410163   5.718295527629  -3.305694871935
193     2  -5.601834470657   5.100983006005   0.006595663582
194     1   4.453634954314  -4.844994765590  -0.000697281615
195     2   5.610505379469  -5.103177579317  -0.001786727516
196     1  -4.451782990489   4.843558871130   0.002882564342
197     3   3.500484238894  -5.718416671165  -0.000431057304
198     3  -3.497385655683   5.715343182614  -0.002635210730
199     2  -5.610189444417   5.104862205029   3.308866604584
200     1   4.451678361897  -4.840707128213   3.311243255292
201     2   5.610909947585  -5.105192940108   3.311576911117
202     1  -4.450176255510   4.843722749027   3.306464197704
203     3   3.498788997884  -5.716823452930   3.306273604177
204     3  -3.494735361415   5.717513955039   3.307752190265
205     2  -5.606670757386   5.100131311161   6.613314488619
206     1   4.454286548056  -4.843430257248   6.621794256110
207     2   5.615346178874  -5.107489903428   6.617343024298
208     1  -4.451640013990   4.842048975457   6.618801023426
209     3   3.498399710709  -5.714755663593   6.622946816450
210     3  -3.499731010938   5.718735872180   6.624677524786
211     2  -5.610020870758   5.106892508945   9.929343593021
212     1   4.453569373781  -4.844752067378  -9.925965021406
213     2   5.606856871702  -5.107669675018  -9.924916164942
214     1  -4.452133089275   4.846040956705   9.927916326009
215     3   3.497634887912  -5.714480409179   9.927728649433
216     3  -3.499855541113   5.719996375957   9.925656834376
0.000000000000   0.000000000000   0.000000000000
14.724000000000   0.000000000000   0.000000000000
-7.362000000000  12.751358045322   0.000000000000
0.000000000000   0.000000000000  19.859999000000
}
Driver = {}
Hamiltonian = DFTB {
  charge = 0
  SCC = Yes
  SCCTolerance = 1.0e-4
  MaxSccIterations = 250
  ThirdOrderFull = Yes
  ReadInitialCharges = Yes
  KPointsAndWeights = {
0.0 0.0 0.0 1.0
  }
  Dispersion = DftD3 {
    Damping = BeckeJohnson {
      a1 = 0.746
      a2 = 4.191
    }
    s6 = 1.0
    s8 = 3.209
    cutoff = 94.868329805051374
    cutoffcn = 40.000000000000000
    threebody = No
    hhrepulsion = No
  }
  HubbardDerivs = {
    C = -0.1492
    H = -0.1857
    N = -0.1535
  }
  SlaterKosterFiles = Type2FileNames {
    Prefix = "../slakos/3ob-3-1/"
    Separator = "-"
    Suffix = ".skf"
    LowerCaseTypeName = No
  }
  MaxAngularMomentum = {
    C = "p"
    N = "p"
    H = "s"
  }
  Filling = Fermi {
    Temperature [Kelvin] = 0.0
    IndependentKFilling = No
  }
  HCorrection = Damping {
    Exponent = 4.0000000000000000
  }
  PolynomialRepulsive = {}
  ShellResolvedSCC = No
  OldSKInterpolation = No
  EwaldParameter = 0.0000000000000000
  EwaldTolerance = 1.0000000000000001E-009
  ConvergentSCCOnly = Yes
  SpinPolarisation = {}
  ElectricField = {}
  Solver = RelativelyRobust {}
  OnSiteCorrection = {}
  Solvation = {}
  Electrostatics = GammaFunctional {}
  ThirdOrder = No
  Differentiation = FiniteDiff {
    Delta = 1.2207031250000000E-004
  }
  ForceEvaluation = "Traditional"
  Mixer = Broyden {
    MixingParameter = 0.20000000000000001
    InverseJacobiWeight = 1.0000000000000000E-002
    MinimalWeight = 1.0000000000000000
    MaximalWeight = 100000.00000000000
    WeightFactor = 1.0000000000000000E-002
  }
}
Options = {
  WriteDetailedOut = Yes
  WriteAutotestTag = No
  WriteDetailedXML = No
  WriteResultsTag = No
  RestartFrequency = 20
  RandomSeed = 0
  WriteHS = No
  WriteRealHS = No
  MinimiseMemoryUsage = No
  ShowFoldedCoords = No
  TimingVerbosity = 1
  ReadChargesAsText = No
  WriteCharges = Yes
  WriteChargesAsText = No
  SkipChargeTest = No
  BinaryAccessTypes = {
 "stream"
  }
}
Analysis = {
  MullikenAnalysis = Yes
  CalculateForces = Yes
  ProjectStates = {}
  WriteEigenvectors = No
  WriteBandOut = Yes
  WriteNetCharges = No
  AtomResolvedEnergies = No
}
ParserOptions = {
  ParserVersion = 14
  WriteHSDInput = Yes
  StopAfterParsing = No
  IgnoreUnprocessedNodes = No
}
Reks = None {}
ExcitedState = {}
